
        $ From http://www.csplib.org/Problems/prob009/data/helmut.pdf
        $ Problem number 94
        $ Sequence length : 25
        language ESSENCE' 1.0
        letting sizemaster be 327
        letting sizes be sequence(2,9,10,12,13,16,19,21,23,26,36,44,46,52,55,61,62,74,84,87,100,103,104,120,140)
        